p cnf 245 2186
1 2 3 4 5 6 7 0
8 9 10 11 12 13 14 0
15 16 17 18 19 20 21 0
22 23 24 25 26 27 28 0
29 30 31 32 33 34 35 0
36 37 38 39 40 41 42 0
43 44 45 46 47 48 49 0
50 51 52 53 54 55 56 0
57 58 59 60 61 62 63 0
64 65 66 67 68 69 70 0
71 72 73 74 75 76 77 0
78 79 80 81 82 83 84 0
85 86 87 88 89 90 91 0
92 93 94 95 96 97 98 0
99 100 101 102 103 104 105 0
106 107 108 109 110 111 112 0
113 114 115 116 117 118 119 0
120 121 122 123 124 125 126 0
127 128 129 130 131 132 133 0
134 135 136 137 138 139 140 0
141 142 143 144 145 146 147 0
148 149 150 151 152 153 154 0
155 156 157 158 159 160 161 0
162 163 164 165 166 167 168 0
169 170 171 172 173 174 175 0
176 177 178 179 180 181 182 0
183 184 185 186 187 188 189 0
190 191 192 193 194 195 196 0
197 198 199 200 201 202 203 0
204 205 206 207 208 209 210 0
211 212 213 214 215 216 217 0
218 219 220 221 222 223 224 0
225 226 227 228 229 230 231 0
232 233 234 235 236 237 238 0
239 240 241 242 243 244 245 0
-1 -2 0
-1 -3 0
-1 -4 0
-1 -5 0
-1 -6 0
-1 -7 0
-2 -3 0
-2 -4 0
-2 -5 0
-2 -6 0
-2 -7 0
-3 -4 0
-3 -5 0
-3 -6 0
-3 -7 0
-4 -5 0
-4 -6 0
-4 -7 0
-5 -6 0
-5 -7 0
-6 -7 0
-8 -9 0
-8 -10 0
-8 -11 0
-8 -12 0
-8 -13 0
-8 -14 0
-9 -10 0
-9 -11 0
-9 -12 0
-9 -13 0
-9 -14 0
-10 -11 0
-10 -12 0
-10 -13 0
-10 -14 0
-11 -12 0
-11 -13 0
-11 -14 0
-12 -13 0
-12 -14 0
-13 -14 0
-15 -16 0
-15 -17 0
-15 -18 0
-15 -19 0
-15 -20 0
-15 -21 0
-16 -17 0
-16 -18 0
-16 -19 0
-16 -20 0
-16 -21 0
-17 -18 0
-17 -19 0
-17 -20 0
-17 -21 0
-18 -19 0
-18 -20 0
-18 -21 0
-19 -20 0
-19 -21 0
-20 -21 0
-22 -23 0
-22 -24 0
-22 -25 0
-22 -26 0
-22 -27 0
-22 -28 0
-23 -24 0
-23 -25 0
-23 -26 0
-23 -27 0
-23 -28 0
-24 -25 0
-24 -26 0
-24 -27 0
-24 -28 0
-25 -26 0
-25 -27 0
-25 -28 0
-26 -27 0
-26 -28 0
-27 -28 0
-29 -30 0
-29 -31 0
-29 -32 0
-29 -33 0
-29 -34 0
-29 -35 0
-30 -31 0
-30 -32 0
-30 -33 0
-30 -34 0
-30 -35 0
-31 -32 0
-31 -33 0
-31 -34 0
-31 -35 0
-32 -33 0
-32 -34 0
-32 -35 0
-33 -34 0
-33 -35 0
-34 -35 0
-36 -37 0
-36 -38 0
-36 -39 0
-36 -40 0
-36 -41 0
-36 -42 0
-37 -38 0
-37 -39 0
-37 -40 0
-37 -41 0
-37 -42 0
-38 -39 0
-38 -40 0
-38 -41 0
-38 -42 0
-39 -40 0
-39 -41 0
-39 -42 0
-40 -41 0
-40 -42 0
-41 -42 0
-43 -44 0
-43 -45 0
-43 -46 0
-43 -47 0
-43 -48 0
-43 -49 0
-44 -45 0
-44 -46 0
-44 -47 0
-44 -48 0
-44 -49 0
-45 -46 0
-45 -47 0
-45 -48 0
-45 -49 0
-46 -47 0
-46 -48 0
-46 -49 0
-47 -48 0
-47 -49 0
-48 -49 0
-50 -51 0
-50 -52 0
-50 -53 0
-50 -54 0
-50 -55 0
-50 -56 0
-51 -52 0
-51 -53 0
-51 -54 0
-51 -55 0
-51 -56 0
-52 -53 0
-52 -54 0
-52 -55 0
-52 -56 0
-53 -54 0
-53 -55 0
-53 -56 0
-54 -55 0
-54 -56 0
-55 -56 0
-57 -58 0
-57 -59 0
-57 -60 0
-57 -61 0
-57 -62 0
-57 -63 0
-58 -59 0
-58 -60 0
-58 -61 0
-58 -62 0
-58 -63 0
-59 -60 0
-59 -61 0
-59 -62 0
-59 -63 0
-60 -61 0
-60 -62 0
-60 -63 0
-61 -62 0
-61 -63 0
-62 -63 0
-64 -65 0
-64 -66 0
-64 -67 0
-64 -68 0
-64 -69 0
-64 -70 0
-65 -66 0
-65 -67 0
-65 -68 0
-65 -69 0
-65 -70 0
-66 -67 0
-66 -68 0
-66 -69 0
-66 -70 0
-67 -68 0
-67 -69 0
-67 -70 0
-68 -69 0
-68 -70 0
-69 -70 0
-71 -72 0
-71 -73 0
-71 -74 0
-71 -75 0
-71 -76 0
-71 -77 0
-72 -73 0
-72 -74 0
-72 -75 0
-72 -76 0
-72 -77 0
-73 -74 0
-73 -75 0
-73 -76 0
-73 -77 0
-74 -75 0
-74 -76 0
-74 -77 0
-75 -76 0
-75 -77 0
-76 -77 0
-78 -79 0
-78 -80 0
-78 -81 0
-78 -82 0
-78 -83 0
-78 -84 0
-79 -80 0
-79 -81 0
-79 -82 0
-79 -83 0
-79 -84 0
-80 -81 0
-80 -82 0
-80 -83 0
-80 -84 0
-81 -82 0
-81 -83 0
-81 -84 0
-82 -83 0
-82 -84 0
-83 -84 0
-85 -86 0
-85 -87 0
-85 -88 0
-85 -89 0
-85 -90 0
-85 -91 0
-86 -87 0
-86 -88 0
-86 -89 0
-86 -90 0
-86 -91 0
-87 -88 0
-87 -89 0
-87 -90 0
-87 -91 0
-88 -89 0
-88 -90 0
-88 -91 0
-89 -90 0
-89 -91 0
-90 -91 0
-92 -93 0
-92 -94 0
-92 -95 0
-92 -96 0
-92 -97 0
-92 -98 0
-93 -94 0
-93 -95 0
-93 -96 0
-93 -97 0
-93 -98 0
-94 -95 0
-94 -96 0
-94 -97 0
-94 -98 0
-95 -96 0
-95 -97 0
-95 -98 0
-96 -97 0
-96 -98 0
-97 -98 0
-99 -100 0
-99 -101 0
-99 -102 0
-99 -103 0
-99 -104 0
-99 -105 0
-100 -101 0
-100 -102 0
-100 -103 0
-100 -104 0
-100 -105 0
-101 -102 0
-101 -103 0
-101 -104 0
-101 -105 0
-102 -103 0
-102 -104 0
-102 -105 0
-103 -104 0
-103 -105 0
-104 -105 0
-106 -107 0
-106 -108 0
-106 -109 0
-106 -110 0
-106 -111 0
-106 -112 0
-107 -108 0
-107 -109 0
-107 -110 0
-107 -111 0
-107 -112 0
-108 -109 0
-108 -110 0
-108 -111 0
-108 -112 0
-109 -110 0
-109 -111 0
-109 -112 0
-110 -111 0
-110 -112 0
-111 -112 0
-113 -114 0
-113 -115 0
-113 -116 0
-113 -117 0
-113 -118 0
-113 -119 0
-114 -115 0
-114 -116 0
-114 -117 0
-114 -118 0
-114 -119 0
-115 -116 0
-115 -117 0
-115 -118 0
-115 -119 0
-116 -117 0
-116 -118 0
-116 -119 0
-117 -118 0
-117 -119 0
-118 -119 0
-120 -121 0
-120 -122 0
-120 -123 0
-120 -124 0
-120 -125 0
-120 -126 0
-121 -122 0
-121 -123 0
-121 -124 0
-121 -125 0
-121 -126 0
-122 -123 0
-122 -124 0
-122 -125 0
-122 -126 0
-123 -124 0
-123 -125 0
-123 -126 0
-124 -125 0
-124 -126 0
-125 -126 0
-127 -128 0
-127 -129 0
-127 -130 0
-127 -131 0
-127 -132 0
-127 -133 0
-128 -129 0
-128 -130 0
-128 -131 0
-128 -132 0
-128 -133 0
-129 -130 0
-129 -131 0
-129 -132 0
-129 -133 0
-130 -131 0
-130 -132 0
-130 -133 0
-131 -132 0
-131 -133 0
-132 -133 0
-134 -135 0
-134 -136 0
-134 -137 0
-134 -138 0
-134 -139 0
-134 -140 0
-135 -136 0
-135 -137 0
-135 -138 0
-135 -139 0
-135 -140 0
-136 -137 0
-136 -138 0
-136 -139 0
-136 -140 0
-137 -138 0
-137 -139 0
-137 -140 0
-138 -139 0
-138 -140 0
-139 -140 0
-141 -142 0
-141 -143 0
-141 -144 0
-141 -145 0
-141 -146 0
-141 -147 0
-142 -143 0
-142 -144 0
-142 -145 0
-142 -146 0
-142 -147 0
-143 -144 0
-143 -145 0
-143 -146 0
-143 -147 0
-144 -145 0
-144 -146 0
-144 -147 0
-145 -146 0
-145 -147 0
-146 -147 0
-148 -149 0
-148 -150 0
-148 -151 0
-148 -152 0
-148 -153 0
-148 -154 0
-149 -150 0
-149 -151 0
-149 -152 0
-149 -153 0
-149 -154 0
-150 -151 0
-150 -152 0
-150 -153 0
-150 -154 0
-151 -152 0
-151 -153 0
-151 -154 0
-152 -153 0
-152 -154 0
-153 -154 0
-155 -156 0
-155 -157 0
-155 -158 0
-155 -159 0
-155 -160 0
-155 -161 0
-156 -157 0
-156 -158 0
-156 -159 0
-156 -160 0
-156 -161 0
-157 -158 0
-157 -159 0
-157 -160 0
-157 -161 0
-158 -159 0
-158 -160 0
-158 -161 0
-159 -160 0
-159 -161 0
-160 -161 0
-162 -163 0
-162 -164 0
-162 -165 0
-162 -166 0
-162 -167 0
-162 -168 0
-163 -164 0
-163 -165 0
-163 -166 0
-163 -167 0
-163 -168 0
-164 -165 0
-164 -166 0
-164 -167 0
-164 -168 0
-165 -166 0
-165 -167 0
-165 -168 0
-166 -167 0
-166 -168 0
-167 -168 0
-169 -170 0
-169 -171 0
-169 -172 0
-169 -173 0
-169 -174 0
-169 -175 0
-170 -171 0
-170 -172 0
-170 -173 0
-170 -174 0
-170 -175 0
-171 -172 0
-171 -173 0
-171 -174 0
-171 -175 0
-172 -173 0
-172 -174 0
-172 -175 0
-173 -174 0
-173 -175 0
-174 -175 0
-176 -177 0
-176 -178 0
-176 -179 0
-176 -180 0
-176 -181 0
-176 -182 0
-177 -178 0
-177 -179 0
-177 -180 0
-177 -181 0
-177 -182 0
-178 -179 0
-178 -180 0
-178 -181 0
-178 -182 0
-179 -180 0
-179 -181 0
-179 -182 0
-180 -181 0
-180 -182 0
-181 -182 0
-183 -184 0
-183 -185 0
-183 -186 0
-183 -187 0
-183 -188 0
-183 -189 0
-184 -185 0
-184 -186 0
-184 -187 0
-184 -188 0
-184 -189 0
-185 -186 0
-185 -187 0
-185 -188 0
-185 -189 0
-186 -187 0
-186 -188 0
-186 -189 0
-187 -188 0
-187 -189 0
-188 -189 0
-190 -191 0
-190 -192 0
-190 -193 0
-190 -194 0
-190 -195 0
-190 -196 0
-191 -192 0
-191 -193 0
-191 -194 0
-191 -195 0
-191 -196 0
-192 -193 0
-192 -194 0
-192 -195 0
-192 -196 0
-193 -194 0
-193 -195 0
-193 -196 0
-194 -195 0
-194 -196 0
-195 -196 0
-197 -198 0
-197 -199 0
-197 -200 0
-197 -201 0
-197 -202 0
-197 -203 0
-198 -199 0
-198 -200 0
-198 -201 0
-198 -202 0
-198 -203 0
-199 -200 0
-199 -201 0
-199 -202 0
-199 -203 0
-200 -201 0
-200 -202 0
-200 -203 0
-201 -202 0
-201 -203 0
-202 -203 0
-204 -205 0
-204 -206 0
-204 -207 0
-204 -208 0
-204 -209 0
-204 -210 0
-205 -206 0
-205 -207 0
-205 -208 0
-205 -209 0
-205 -210 0
-206 -207 0
-206 -208 0
-206 -209 0
-206 -210 0
-207 -208 0
-207 -209 0
-207 -210 0
-208 -209 0
-208 -210 0
-209 -210 0
-211 -212 0
-211 -213 0
-211 -214 0
-211 -215 0
-211 -216 0
-211 -217 0
-212 -213 0
-212 -214 0
-212 -215 0
-212 -216 0
-212 -217 0
-213 -214 0
-213 -215 0
-213 -216 0
-213 -217 0
-214 -215 0
-214 -216 0
-214 -217 0
-215 -216 0
-215 -217 0
-216 -217 0
-218 -219 0
-218 -220 0
-218 -221 0
-218 -222 0
-218 -223 0
-218 -224 0
-219 -220 0
-219 -221 0
-219 -222 0
-219 -223 0
-219 -224 0
-220 -221 0
-220 -222 0
-220 -223 0
-220 -224 0
-221 -222 0
-221 -223 0
-221 -224 0
-222 -223 0
-222 -224 0
-223 -224 0
-225 -226 0
-225 -227 0
-225 -228 0
-225 -229 0
-225 -230 0
-225 -231 0
-226 -227 0
-226 -228 0
-226 -229 0
-226 -230 0
-226 -231 0
-227 -228 0
-227 -229 0
-227 -230 0
-227 -231 0
-228 -229 0
-228 -230 0
-228 -231 0
-229 -230 0
-229 -231 0
-230 -231 0
-232 -233 0
-232 -234 0
-232 -235 0
-232 -236 0
-232 -237 0
-232 -238 0
-233 -234 0
-233 -235 0
-233 -236 0
-233 -237 0
-233 -238 0
-234 -235 0
-234 -236 0
-234 -237 0
-234 -238 0
-235 -236 0
-235 -237 0
-235 -238 0
-236 -237 0
-236 -238 0
-237 -238 0
-239 -240 0
-239 -241 0
-239 -242 0
-239 -243 0
-239 -244 0
-239 -245 0
-240 -241 0
-240 -242 0
-240 -243 0
-240 -244 0
-240 -245 0
-241 -242 0
-241 -243 0
-241 -244 0
-241 -245 0
-242 -243 0
-242 -244 0
-242 -245 0
-243 -244 0
-243 -245 0
-244 -245 0
-7 -105 0
-3 -100 0
-4 -100 0
-5 -105 0
-4 -99 0
-1 -104 0
-5 -99 0
-7 -101 0
-4 -104 0
-5 -104 0
-4 -101 0
-2 -104 0
-1 -102 0
-7 -99 0
-7 -102 0
-3 -104 0
-2 -105 0
-2 -101 0
-5 -101 0
-3 -102 0
-2 -100 0
-5 -100 0
-6 -102 0
-6 -105 0
-4 -110 0
-3 -112 0
-7 -110 0
-4 -112 0
-5 -106 0
-7 -107 0
-1 -112 0
-6 -112 0
-7 -108 0
-3 -107 0
-3 -109 0
-2 -106 0
-1 -107 0
-1 -109 0
-5 -108 0
-5 -107 0
-5 -111 0
-7 -112 0
-2 -112 0
-1 -106 0
-5 -110 0
-4 -109 0
-6 -107 0
-7 -109 0
-11 -129 0
-13 -129 0
-14 -132 0
-11 -128 0
-11 -131 0
-8 -131 0
-13 -133 0
-11 -130 0
-14 -130 0
-12 -128 0
-9 -132 0
-13 -127 0
-13 -130 0
-11 -127 0
-10 -131 0
-11 -133 0
-12 -131 0
-12 -127 0
-14 -131 0
-8 -129 0
-10 -130 0
-12 -129 0
-9 -130 0
-9 -133 0
-13 -195 0
-10 -192 0
-10 -194 0
-11 -191 0
-13 -193 0
-12 -192 0
-10 -196 0
-14 -191 0
-8 -190 0
-13 -194 0
-11 -196 0
-11 -192 0
-10 -195 0
-14 -196 0
-14 -194 0
-10 -193 0
-12 -193 0
-13 -196 0
-8 -194 0
-9 -191 0
-14 -193 0
-11 -193 0
-11 -195 0
-9 -193 0
-13 -215 0
-12 -217 0
-11 -217 0
-14 -213 0
-10 -217 0
-12 -215 0
-9 -215 0
-13 -212 0
-11 -212 0
-9 -213 0
-9 -217 0
-11 -213 0
-11 -215 0
-12 -212 0
-9 -214 0
-10 -213 0
-14 -217 0
-9 -216 0
-11 -214 0
-11 -211 0
-10 -216 0
-14 -215 0
-8 -214 0
-12 -211 0
-20 -50 0
-16 -51 0
-21 -51 0
-17 -55 0
-15 -55 0
-18 -56 0
-18 -52 0
-17 -51 0
-18 -51 0
-19 -51 0
-19 -50 0
-17 -53 0
-18 -54 0
-21 -54 0
-20 -53 0
-17 -54 0
-15 -56 0
-19 -52 0
-17 -56 0
-20 -56 0
-18 -53 0
-15 -50 0
-20 -55 0
-21 -55 0
-20 -87 0
-17 -88 0
-21 -91 0
-16 -87 0
-18 -87 0
-15 -85 0
-16 -88 0
-17 -91 0
-17 -85 0
-21 -89 0
-21 -88 0
-15 -87 0
-21 -87 0
-19 -90 0
-20 -85 0
-15 -88 0
-18 -91 0
-21 -85 0
-20 -91 0
-17 -90 0
-15 -89 0
-15 -86 0
-19 -89 0
-15 -91 0
-21 -108 0
-16 -110 0
-15 -110 0
-19 -112 0
-20 -111 0
-20 -110 0
-18 -112 0
-16 -111 0
-20 -109 0
-17 -110 0
-20 -108 0
-16 -109 0
-17 -112 0
-16 -106 0
-18 -107 0
-21 -112 0
-20 -112 0
-21 -109 0
-15 -109 0
-17 -107 0
-21 -110 0
-19 -106 0
-21 -106 0
-19 -109 0
-18 -208 0
-18 -207 0
-19 -209 0
-19 -206 0
-21 -207 0
-15 -207 0
-21 -209 0
-16 -209 0
-16 -210 0
-21 -210 0
-17 -208 0
-20 -207 0
-19 -204 0
-19 -208 0
-18 -210 0
-20 -208 0
-19 -207 0
-20 -204 0
-21 -206 0
-15 -206 0
-17 -206 0
-19 -210 0
-16 -204 0
-18 -206 0
-15 -215 0
-17 -213 0
-21 -216 0
-18 -212 0
-18 -214 0
-18 -215 0
-18 -217 0
-16 -211 0
-16 -212 0
-19 -215 0
-21 -214 0
-20 -217 0
-21 -213 0
-17 -212 0
-21 -215 0
-18 -211 0
-15 -217 0
-15 -216 0
-15 -213 0
-15 -211 0
-21 -212 0
-19 -217 0
-21 -217 0
-17 -217 0
-28 -224 0
-27 -222 0
-23 -224 0
-25 -218 0
-25 -220 0
-27 -220 0
-23 -222 0
-22 -223 0
-28 -220 0
-24 -218 0
-28 -221 0
-25 -219 0
-25 -224 0
-27 -219 0
-26 -223 0
-22 -219 0
-26 -221 0
-23 -218 0
-22 -218 0
-28 -223 0
-22 -222 0
-27 -221 0
-22 -221 0
-24 -219 0
-35 -39 0
-30 -40 0
-29 -39 0
-32 -37 0
-31 -36 0
-32 -39 0
-32 -42 0
-33 -38 0
-35 -38 0
-35 -42 0
-32 -41 0
-31 -42 0
-31 -38 0
-29 -38 0
-33 -41 0
-33 -37 0
-29 -41 0
-31 -39 0
-30 -39 0
-30 -38 0
-33 -40 0
-30 -36 0
-32 -38 0
-35 -36 0
-35 -188 0
-32 -186 0
-30 -185 0
-31 -188 0
-32 -185 0
-29 -187 0
-33 -183 0
-35 -186 0
-32 -183 0
-35 -183 0
-29 -189 0
-32 -184 0
-34 -189 0
-32 -188 0
-29 -183 0
-29 -185 0
-34 -183 0
-32 -187 0
-34 -186 0
-29 -188 0
-29 -184 0
-34 -187 0
-33 -189 0
-35 -184 0
-42 -132 0
-41 -132 0
-40 -128 0
-41 -130 0
-41 -127 0
-42 -127 0
-42 -129 0
-39 -127 0
-38 -133 0
-41 -131 0
-37 -130 0
-39 -132 0
-36 -128 0
-41 -128 0
-38 -128 0
-40 -133 0
-36 -132 0
-39 -128 0
-39 -131 0
-39 -133 0
-36 -129 0
-36 -133 0
-38 -130 0
-37 -129 0
-36 -245 0
-37 -241 0
-41 -243 0
-40 -240 0
-41 -242 0
-36 -243 0
-37 -245 0
-40 -243 0
-38 -242 0
-41 -245 0
-38 -240 0
-39 -245 0
-39 -241 0
-38 -241 0
-41 -239 0
-41 -244 0
-42 -245 0
-36 -242 0
-36 -239 0
-38 -245 0
-40 -239 0
-36 -241 0
-41 -241 0
-39 -239 0
-44 -150 0
-44 -153 0
-48 -154 0
-43 -151 0
-43 -150 0
-43 -148 0
-49 -152 0
-48 -151 0
-48 -153 0
-46 -154 0
-45 -148 0
-45 -153 0
-49 -148 0
-44 -154 0
-49 -149 0
-46 -150 0
-47 -149 0
-46 -148 0
-46 -151 0
-49 -150 0
-48 -152 0
-44 -151 0
-47 -150 0
-46 -153 0
-49 -233 0
-43 -234 0
-48 -233 0
-49 -237 0
-44 -235 0
-47 -235 0
-44 -237 0
-48 -238 0
-43 -233 0
-46 -233 0
-47 -238 0
-43 -232 0
-47 -234 0
-45 -232 0
-44 -232 0
-46 -232 0
-43 -236 0
-47 -236 0
-44 -234 0
-49 -236 0
-49 -238 0
-44 -238 0
-46 -234 0
-46 -235 0
-50 -74 0
-55 -73 0
-53 -73 0
-52 -76 0
-52 -72 0
-52 -74 0
-51 -75 0
-53 -76 0
-53 -74 0
-51 -74 0
-53 -75 0
-52 -77 0
-53 -71 0
-50 -75 0
-56 -71 0
-54 -76 0
-55 -76 0
-54 -74 0
-54 -77 0
-50 -71 0
-56 -74 0
-51 -76 0
-55 -77 0
-56 -75 0
-54 -146 0
-56 -141 0
-55 -146 0
-52 -146 0
-51 -143 0
-53 -141 0
-53 -147 0
-56 -145 0
-52 -144 0
-56 -147 0
-52 -147 0
-56 -142 0
-54 -141 0
-53 -146 0
-55 -144 0
-55 -141 0
-50 -143 0
-52 -145 0
-55 -145 0
-50 -146 0
-51 -147 0
-54 -145 0
-56 -146 0
-52 -143 0
-57 -96 0
-63 -93 0
-58 -96 0
-61 -97 0
-60 -98 0
-62 -94 0
-63 -97 0
-60 -94 0
-62 -95 0
-62 -96 0
-58 -93 0
-57 -95 0
-60 -95 0
-62 -97 0
-58 -92 0
-61 -96 0
-62 -98 0
-60 -92 0
-57 -98 0
-63 -92 0
-63 -98 0
-57 -92 0
-62 -92 0
-61 -92 0
-63 -160 0
-57 -158 0
-60 -158 0
-60 -160 0
-61 -155 0
-62 -160 0
-60 -156 0
-57 -161 0
-58 -156 0
-59 -155 0
-63 -157 0
-59 -157 0
-63 -156 0
-61 -158 0
-57 -160 0
-59 -159 0
-57 -159 0
-60 -161 0
-57 -156 0
-60 -157 0
-58 -160 0
-58 -159 0
-60 -159 0
-63 -155 0
-69 -163 0
-66 -162 0
-67 -168 0
-68 -163 0
-68 -166 0
-67 -163 0
-70 -167 0
-70 -166 0
-67 -162 0
-67 -165 0
-70 -163 0
-69 -166 0
-69 -165 0
-65 -162 0
-69 -162 0
-64 -164 0
-68 -162 0
-66 -163 0
-68 -167 0
-65 -166 0
-70 -168 0
-67 -167 0
-65 -168 0
-70 -165 0
-65 -210 0
-70 -209 0
-65 -206 0
-68 -204 0
-65 -204 0
-67 -204 0
-69 -204 0
-70 -205 0
-66 -204 0
-67 -206 0
-67 -207 0
-64 -207 0
-64 -205 0
-68 -206 0
-66 -205 0
-70 -204 0
-69 -209 0
-70 -210 0
-66 -210 0
-65 -208 0
-67 -205 0
-70 -208 0
-64 -208 0
-68 -209 0
-75 -107 0
-76 -107 0
-77 -109 0
-71 -108 0
-76 -109 0
-73 -106 0
-75 -109 0
-77 -108 0
-71 -109 0
-71 -107 0
-74 -107 0
-72 -107 0
-77 -112 0
-76 -106 0
-73 -109 0
-71 -106 0
-72 -112 0
-74 -106 0
-72 -108 0
-72 -110 0
-75 -111 0
-74 -110 0
-75 -112 0
-73 -112 0
-73 -149 0
-76 -150 0
-77 -148 0
-74 -153 0
-75 -152 0
-77 -152 0
-73 -154 0
-72 -151 0
-75 -150 0
-73 -150 0
-75 -148 0
-71 -148 0
-73 -148 0
-75 -149 0
-71 -149 0
-76 -152 0
-76 -153 0
-72 -149 0
-73 -151 0
-74 -154 0
-76 -154 0
-71 -151 0
-73 -152 0
-77 -154 0
-71 -230 0
-71 -227 0
-71 -226 0
-76 -228 0
-72 -228 0
-74 -228 0
-76 -231 0
-77 -226 0
-75 -226 0
-75 -227 0
-76 -229 0
-77 -225 0
-73 -227 0
-71 -225 0
-72 -229 0
-74 -227 0
-77 -231 0
-72 -226 0
-72 -230 0
-77 -230 0
-75 -225 0
-73 -231 0
-76 -226 0
-72 -227 0
-79 -126 0
-78 -126 0
-83 -121 0
-80 -126 0
-81 -125 0
-82 -120 0
-83 -120 0
-78 -125 0
-84 -122 0
-78 -122 0
-79 -120 0
-81 -122 0
-82 -121 0
-84 -121 0
-79 -122 0
-80 -123 0
-80 -120 0
-78 -124 0
-84 -124 0
-78 -120 0
-83 -125 0
-83 -122 0
-79 -123 0
-81 -120 0
-81 -138 0
-84 -138 0
-78 -135 0
-81 -137 0
-84 -137 0
-84 -136 0
-78 -140 0
-83 -134 0
-80 -137 0
-79 -136 0
-79 -134 0
-81 -136 0
-78 -138 0
-83 -139 0
-82 -139 0
-79 -139 0
-83 -137 0
-80 -134 0
-78 -134 0
-83 -136 0
-80 -136 0
-80 -135 0
-82 -140 0
-81 -134 0
-81 -188 0
-83 -184 0
-80 -186 0
-83 -183 0
-79 -187 0
-80 -184 0
-81 -187 0
-78 -183 0
-82 -183 0
-79 -186 0
-83 -186 0
-84 -189 0
-80 -189 0
-83 -188 0
-81 -185 0
-78 -185 0
-78 -187 0
-78 -188 0
-79 -183 0
-84 -184 0
-84 -186 0
-78 -189 0
-79 -185 0
-83 -187 0
-80 -220 0
-83 -221 0
-83 -219 0
-79 -221 0
-79 -220 0
-83 -220 0
-78 -223 0
-79 -224 0
-82 -221 0
-82 -223 0
-80 -224 0
-81 -223 0
-82 -219 0
-84 -219 0
-78 -220 0
-78 -218 0
-81 -224 0
-80 -219 0
-83 -224 0
-80 -218 0
-79 -223 0
-83 -223 0
-78 -221 0
-84 -223 0
-88 -171 0
-88 -174 0
-89 -169 0
-90 -172 0
-89 -175 0
-85 -172 0
-86 -173 0
-86 -170 0
-90 -175 0
-87 -170 0
-85 -174 0
-90 -173 0
-86 -171 0
-90 -171 0
-87 -171 0
-86 -172 0
-89 -170 0
-85 -175 0
-85 -169 0
-87 -175 0
-90 -170 0
-90 -174 0
-85 -171 0
-89 -171 0
-93 -129 0
-95 -131 0
-97 -133 0
-97 -131 0
-98 -133 0
-95 -129 0
-98 -130 0
-93 -128 0
-92 -127 0
-96 -132 0
-94 -132 0
-93 -130 0
-95 -127 0
-95 -128 0
-97 -129 0
-98 -127 0
-92 -129 0
-93 -131 0
-94 -131 0
-98 -129 0
-93 -127 0
-92 -128 0
-96 -131 0
-92 -131 0
-95 -136 0
-98 -139 0
-94 -136 0
-94 -139 0
-97 -134 0
-94 -137 0
-92 -138 0
-95 -138 0
-96 -134 0
-95 -139 0
-92 -136 0
-96 -138 0
-98 -135 0
-93 -138 0
-97 -140 0
-97 -137 0
-93 -136 0
-94 -140 0
-98 -137 0
-94 -134 0
-92 -137 0
-92 -135 0
-96 -139 0
-97 -138 0
-95 -186 0
-98 -186 0
-92 -186 0
-93 -186 0
-93 -189 0
-92 -187 0
-98 -187 0
-95 -189 0
-96 -185 0
-94 -186 0
-98 -188 0
-95 -188 0
-97 -188 0
-98 -189 0
-97 -187 0
-92 -189 0
-92 -185 0
-96 -188 0
-93 -185 0
-93 -184 0
-93 -183 0
-94 -188 0
-93 -188 0
-96 -186 0
-92 -235 0
-97 -237 0
-93 -238 0
-93 -236 0
-94 -234 0
-97 -233 0
-95 -234 0
-96 -234 0
-95 -233 0
-96 -235 0
-92 -233 0
-94 -236 0
-92 -236 0
-94 -238 0
-92 -238 0
-96 -236 0
-98 -233 0
-96 -238 0
-98 -234 0
-96 -237 0
-97 -238 0
-93 -232 0
-98 -232 0
-95 -236 0
-94 -242 0
-94 -241 0
-92 -244 0
-97 -245 0
-95 -240 0
-96 -242 0
-97 -241 0
-98 -244 0
-93 -242 0
-92 -242 0
-96 -239 0
-95 -239 0
-96 -244 0
-96 -240 0
-92 -243 0
-92 -239 0
-93 -245 0
-95 -244 0
-98 -239 0
-96 -243 0
-93 -239 0
-97 -242 0
-94 -244 0
-92 -241 0
-99 -150 0
-99 -151 0
-102 -150 0
-103 -153 0
-102 -154 0
-99 -152 0
-102 -153 0
-101 -148 0
-100 -152 0
-100 -151 0
-100 -153 0
-102 -152 0
-100 -148 0
-101 -149 0
-103 -152 0
-102 -151 0
-104 -151 0
-103 -148 0
-104 -150 0
-102 -149 0
-105 -151 0
-101 -151 0
-105 -154 0
-104 -152 0
-100 -182 0
-104 -182 0
-104 -177 0
-105 -178 0
-104 -181 0
-104 -179 0
-101 -181 0
-104 -176 0
-101 -178 0
-101 -180 0
-105 -177 0
-101 -182 0
-103 -176 0
-104 -180 0
-99 -181 0
-99 -176 0
-99 -178 0
-105 -182 0
-105 -179 0
-103 -178 0
-104 -178 0
-103 -177 0
-99 -179 0
-99 -180 0
-100 -212 0
-104 -216 0
-102 -212 0
-103 -216 0
-99 -215 0
-103 -214 0
-102 -216 0
-101 -217 0
-105 -216 0
-102 -215 0
-102 -211 0
-99 -211 0
-103 -217 0
-103 -212 0
-102 -217 0
-101 -211 0
-100 -217 0
-103 -213 0
-104 -214 0
-101 -214 0
-101 -216 0
-101 -215 0
-99 -213 0
-100 -213 0
-112 -138 0
-107 -134 0
-112 -134 0
-107 -137 0
-106 -139 0
-109 -135 0
-110 -135 0
-108 -136 0
-110 -134 0
-110 -139 0
-109 -138 0
-106 -138 0
-111 -134 0
-111 -138 0
-106 -136 0
-109 -134 0
-106 -140 0
-112 -135 0
-108 -137 0
-106 -135 0
-109 -136 0
-108 -135 0
-111 -139 0
-108 -140 0
-114 -122 0
-113 -126 0
-119 -126 0
-118 -121 0
-118 -120 0
-115 -124 0
-118 -123 0
-116 -123 0
-117 -120 0
-115 -126 0
-113 -125 0
-118 -126 0
-119 -120 0
-118 -122 0
-114 -121 0
-115 -123 0
-117 -124 0
-114 -124 0
-115 -125 0
-113 -120 0
-118 -125 0
-119 -121 0
-118 -124 0
-119 -125 0
-116 -131 0
-117 -133 0
-114 -133 0
-115 -128 0
-114 -130 0
-114 -127 0
-118 -130 0
-113 -133 0
-115 -129 0
-116 -127 0
-118 -132 0
-113 -132 0
-119 -132 0
-113 -129 0
-119 -133 0
-119 -130 0
-115 -133 0
-117 -129 0
-115 -132 0
-113 -131 0
-113 -130 0
-114 -131 0
-117 -128 0
-118 -129 0
-117 -135 0
-114 -135 0
-118 -136 0
-119 -135 0
-117 -137 0
-116 -135 0
-115 -136 0
-116 -136 0
-114 -137 0
-118 -139 0
-114 -140 0
-115 -134 0
-114 -138 0
-114 -136 0
-116 -138 0
-118 -138 0
-113 -137 0
-116 -140 0
-115 -135 0
-116 -137 0
-119 -138 0
-117 -140 0
-114 -134 0
-117 -136 0
-125 -218 0
-122 -221 0
-126 -223 0
-124 -218 0
-126 -219 0
-122 -219 0
-125 -221 0
-123 -218 0
-122 -218 0
-126 -218 0
-124 -219 0
-124 -222 0
-123 -223 0
-121 -219 0
-123 -220 0
-124 -221 0
-121 -220 0
-124 -223 0
-125 -224 0
-123 -224 0
-123 -221 0
-122 -223 0
-126 -220 0
-121 -223 0
-133 -149 0
-128 -149 0
-129 -154 0
-128 -150 0
-132 -152 0
-133 -153 0
-133 -154 0
-133 -150 0
-127 -154 0
-129 -148 0
-133 -152 0
-129 -150 0
-130 -149 0
-130 -152 0
-130 -154 0
-127 -152 0
-130 -150 0
-131 -152 0
-132 -148 0
-132 -150 0
-129 -151 0
-127 -148 0
-131 -154 0
-128 -153 0
-128 -165 0
-132 -165 0
-128 -163 0
-129 -167 0
-133 -164 0
-131 -164 0
-130 -163 0
-131 -168 0
-130 -162 0
-129 -165 0
-129 -164 0
-132 -166 0
-133 -163 0
-129 -162 0
-131 -167 0
-128 -162 0
-131 -165 0
-129 -168 0
-132 -163 0
-132 -167 0
-128 -167 0
-127 -165 0
-132 -168 0
-130 -165 0
-131 -227 0
-127 -229 0
-130 -228 0
-128 -231 0
-130 -226 0
-128 -230 0
-130 -230 0
-131 -231 0
-133 -228 0
-129 -227 0
-133 -227 0
-132 -225 0
-129 -229 0
-131 -229 0
-133 -225 0
-128 -226 0
-133 -231 0
-133 -230 0
-128 -228 0
-129 -228 0
-129 -231 0
-130 -229 0
-131 -228 0
-127 -225 0
-134 -155 0
-139 -156 0
-138 -161 0
-135 -159 0
-139 -155 0
-138 -160 0
-137 -156 0
-134 -158 0
-135 -156 0
-137 -157 0
-139 -158 0
-134 -156 0
-138 -156 0
-140 -159 0
-140 -158 0
-136 -159 0
-136 -155 0
-134 -160 0
-135 -157 0
-137 -161 0
-140 -157 0
-137 -160 0
-136 -160 0
-134 -157 0
-139 -174 0
-136 -172 0
-140 -175 0
-136 -175 0
-135 -174 0
-135 -172 0
-140 -169 0
-136 -171 0
-136 -169 0
-138 -170 0
-134 -171 0
-139 -171 0
-139 -170 0
-134 -170 0
-140 -170 0
-140 -171 0
-138 -171 0
-134 -169 0
-136 -174 0
-134 -175 0
-138 -175 0
-135 -169 0
-139 -169 0
-140 -173 0
-135 -222 0
-135 -221 0
-140 -220 0
-138 -218 0
-134 -220 0
-137 -220 0
-139 -220 0
-138 -223 0
-138 -219 0
-140 -221 0
-137 -219 0
-135 -224 0
-137 -221 0
-138 -224 0
-134 -223 0
-136 -224 0
-139 -221 0
-136 -221 0
-140 -218 0
-140 -224 0
-134 -219 0
-137 -218 0
-135 -219 0
-134 -218 0
-139 -233 0
-135 -237 0
-137 -238 0
-140 -233 0
-137 -235 0
-137 -232 0
-138 -237 0
-139 -234 0
-135 -234 0
-135 -233 0
-140 -237 0
-138 -235 0
-136 -233 0
-140 -235 0
-134 -237 0
-134 -232 0
-137 -237 0
-139 -235 0
-137 -236 0
-139 -238 0
-136 -234 0
-138 -233 0
-135 -235 0
-139 -237 0
-146 -164 0
-141 -168 0
-142 -162 0
-145 -163 0
-144 -162 0
-143 -167 0
-146 -162 0
-146 -167 0
-143 -168 0
-147 -167 0
-142 -163 0
-143 -166 0
-144 -166 0
-145 -164 0
-143 -162 0
-145 -165 0
-142 -165 0
-146 -165 0
-145 -166 0
-147 -164 0
-144 -168 0
-147 -168 0
-147 -166 0
-143 -165 0
-153 -215 0
-149 -214 0
-150 -216 0
-150 -213 0
-152 -215 0
-153 -213 0
-148 -213 0
-150 -212 0
-151 -217 0
-149 -215 0
-151 -214 0
-152 -217 0
-149 -217 0
-153 -217 0
-153 -211 0
-151 -215 0
-148 -216 0
-151 -216 0
-151 -211 0
-153 -212 0
-152 -212 0
-149 -211 0
-148 -217 0
-153 -214 0
-153 -223 0
-148 -221 0
-154 -224 0
-153 -220 0
-152 -218 0
-154 -223 0
-152 -220 0
-149 -219 0
-152 -222 0
-150 -223 0
-150 -221 0
-151 -222 0
-153 -224 0
-151 -219 0
-152 -221 0
-149 -224 0
-152 -224 0
-148 -218 0
-148 -220 0
-154 -218 0
-148 -223 0
-151 -224 0
-153 -222 0
-150 -222 0
-161 -192 0
-155 -190 0
-160 -196 0
-156 -190 0
-160 -190 0
-161 -196 0
-158 -192 0
-157 -192 0
-159 -190 0
-157 -191 0
-159 -196 0
-158 -195 0
-158 -194 0
-155 -191 0
-157 -195 0
-159 -192 0
-156 -194 0
-160 -194 0
-156 -195 0
-159 -193 0
-157 -190 0
-155 -196 0
-158 -191 0
-161 -194 0
-160 -218 0
-157 -224 0
-161 -222 0
-158 -223 0
-161 -220 0
-155 -219 0
-155 -221 0
-157 -221 0
-158 -218 0
-155 -223 0
-159 -220 0
-157 -219 0
-157 -223 0
-159 -221 0
-156 -218 0
-159 -219 0
-156 -219 0
-160 -221 0
-156 -220 0
-155 -218 0
-156 -224 0
-158 -221 0
-155 -220 0
-156 -221 0
-168 -211 0
-167 -216 0
-162 -216 0
-163 -211 0
-168 -214 0
-165 -214 0
-167 -213 0
-165 -216 0
-163 -214 0
-165 -212 0
-167 -212 0
-164 -217 0
-166 -214 0
-163 -216 0
-162 -211 0
-165 -217 0
-168 -217 0
-162 -212 0
-164 -213 0
-163 -215 0
-168 -212 0
-167 -211 0
-166 -212 0
-163 -217 0
-162 -220 0
-166 -224 0
-164 -218 0
-164 -221 0
-168 -220 0
-162 -222 0
-167 -223 0
-163 -218 0
-164 -220 0
-166 -223 0
-165 -223 0
-166 -218 0
-168 -223 0
-166 -220 0
-168 -222 0
-163 -223 0
-166 -222 0
-162 -221 0
-162 -219 0
-167 -221 0
-164 -222 0
-168 -221 0
-165 -220 0
-167 -222 0
-179 -217 0
-182 -214 0
-179 -214 0
-178 -216 0
-179 -216 0
-181 -214 0
-178 -214 0
-179 -215 0
-182 -217 0
-179 -213 0
-176 -213 0
-178 -211 0
-177 -212 0
-177 -214 0
-176 -211 0
-181 -217 0
-182 -213 0
-176 -216 0
-178 -215 0
-180 -213 0
-182 -216 0
-177 -213 0
-176 -214 0
-177 -217 0
